problem_generation/data/GISP/train/er_n=64_m=1219_p=0.60_SET2_setparam=100.00_alpha=0.50_109.lp
maximize
OBJ:100x0 + 100x1 + 100x2 + 100x3 + 100x4 + 100x5 + 100x6 + 100x7 + 100x8 + 100x9 + 100x10 + 100x11 + 100x12 + 100x13 + 100x14 + 100x15 + 100x16 + 100x17 + 100x18 + 100x19 + 100x20 + 100x21 + 100x22 + 100x23 + 100x24 + 100x25 + 100x26 + 100x27 + 100x28 + 100x29 + 100x30 + 100x31 + 100x32 + 100x33 + 100x34 + 100x35 + 100x36 + 100x37 + 100x38 + 100x39 + 100x40 + 100x41 + 100x42 + 100x43 + 100x44 + 100x45 + 100x46 + 100x47 + 100x48 + 100x49 + 100x50 + 100x51 + 100x52 + 100x53 + 100x54 + 100x55 + 100x56 + 100x57 + 100x58 + 100x59 + 100x60 + 100x61 + 100x62 + 100x63 - y7_17 - y15_30 - y47_62 - y26_39 - y17_58 - y7_35 - y18_44 - y0_5 - y8_18 - y48_63 - y33_38 - y44_47 - y3_6 - y10_54 - y22_28 - y25_61 - y14_33 - y22_46 - y7_12 - y47_48 - y15_25 - y18_21 - y17_53 - y7_30 - y9_49 - y18_30 - y6_34 - y29_45 - y48_58 - y2_27 - y25_29 - y33_42 - y22_23 - y3_19 - y14_19 - y22_32 - y3_28 - y13_60 - y24_60 - y55_56 - y5_46 - y17_57 - y29_31 - y9_62 - y21_27 - y6_47 - y40_49 - y21_45 - y10_17 - y2_13 - y39_62 - y25_33 - y12_63 - y2_40 - y2_49 - y32_50 - y43_50 - y43_59 - y24_55 - y35_55 - y16_51 - y16_60 - y5_50 - y6_15 - y6_24 - y58_62 - y29_35 - y6_42 - y40_44 - y21_40 - y6_51 - y21_49 - y39_48 - y10_21 - y39_57 - y2_17 - y20_53 - y20_62 - y25_28 - y10_39 - y13_32 - y24_32 - y35_41 - y32_54 - y1_48 - y16_55 - y5_27 - y9_25 - y17_38 - y36_51 - y5_45 - y6_10 - y9_43 - y5_54 - y9_52 - y6_28 - y29_30 - y61_62 - y20_39 - y10_16 - y39_52 - y2_12 - y20_48 - y31_48 - y31_57 - y24_27 - y32_40 - y51_53 - y35_36 - y32_49 - y24_45 - y43_58 - y35_54 - y1_61 - y24_63 - y16_59 - y17_24 - y17_33 - y5_40 - y28_42 - y9_47 - y42_44 - y6_32 - y8_51 - y21_30 - y19_60 - y30_60 - y39_47 - y20_43 - y31_43 - y20_52 - y31_52 - y23_48 - y31_61 - y4_44 - y13_22 - y16_18 - y1_29 - y43_53 - y1_47 - y35_49 - y17_19 - y38_51 - y49_51 - y9_24 - y38_60 - y28_37 - y7_63 - y27_50 - y30_46 - y27_59 - y0_51 - y0_60 - y12_25 - y39_42 - y20_56 - y1_15 - y13_17 - y4_48 - y13_26 - y24_26 - y32_39 - y13_35 - y1_42 - y35_44 - y37_63 - y1_51 - y5_12 - y17_23 - y26_53 - y49_55 - y5_30 - y5_39 - y18_58 - y27_36 - y8_32 - y19_32 - y42_43 - y27_54 - y11_37 - y50_56 - y30_50 - y30_59 - y20_24 - y0_55 - y31_33 - y39_46 - y31_42 - y4_43 - y23_56 - y13_21 - y53_57 - y16_17 - y45_62 - y16_35 - y1_46 - y5_16 - y26_48 - y38_59 - y49_59 - y7_53 - y18_53 - y27_31 - y19_27 - y8_36 - y30_36 - y11_32 - y8_45 - y42_47 - y27_58 - y11_41 - y8_54 - y30_54 - y12_15 - y8_63 - y39_41 - y52_60 - y31_37 - y23_33 - y53_61 - y37_44 - y34_57 - y1_32 - y37_53 - y16_30 - y37_62 - y15_34 - y26_34 - y46_49 - y38_45 - y57_58 - y18_39 - y38_54 - y8_13 - y7_57 - y8_22 - y18_57 - y11_18 - y19_40 - y19_49 - y30_49 - y0_45 - y11_45 - y30_58 - y41_46 - y0_54 - y41_55 - y52_55 - y20_32 - y33_51 - y12_28 - y4_24 - y44_60 - y25_56 - y1_9 - y22_41 - y1_18 - y34_52 - y14_46 - y34_61 - y15_20 - y5_6 - y18_25 - y26_38 - y15_47 - y26_47 - y38_49 - y26_56 - y0_4 - y7_52 - y18_61 - y19_26 - y19_35 - y11_40 - y60_63 - y33_46 - y10_53 - y1_4 - y2_58 - y22_36 - y34_38 - y3_32 - y3_41 - y37_43 - y34_56 - y45_56 - y3_50 - y15_24 - y15_33 - y18_56 - y29_53 - y19_30 - y29_62 - y0_35 - y11_35 - y33_41 - y52_54 - y25_37 - y33_50 - y2_44 - y33_59 - y44_59 - y22_40 - y22_49 - y34_51 - y45_51 - y22_58 - y7_15 - y15_37 - y26_46 - y0_3 - y11_12 - y29_48 - y48_61 - y21_44 - y11_21 - y29_57 - y21_62 - y41_49 - y25_32 - y41_58 - y2_48 - y44_63 - y22_26 - y51_62 - y3_40 - y37_42 - y22_53 - y7_19 - y18_19 - y15_32 - y36_55 - y17_60 - y7_37 - y9_56 - y29_34 - y0_7 - y29_43 - y0_16 - y6_59 - y40_61 - y21_57 - y10_29 - y2_25 - y25_27 - y10_38 - y33_40 - y2_34 - y25_36 - y10_47 - y33_49 - y2_43 - y10_56 - y2_52 - y3_17 - y2_61 - y3_44 - y14_44 - y15_18 - y36_50 - y47_50 - y55_63 - y17_46 - y7_23 - y9_42 - y36_59 - y5_53 - y28_55 - y21_25 - y0_2 - y29_38 - y48_51 - y29_47 - y10_15 - y6_63 - y33_35 - y2_29 - y10_51 - y3_12 - y32_48 - y3_21 - y32_57 - y43_57 - y13_53 - y14_30 - y24_62 - y28_32 - y55_58 - y9_46 - y5_57 - y17_59 - y9_55 - y6_40 - y29_42 - y2_15 - y25_35 - y2_42 - y51_56 - y13_39 - y43_52 - y35_48 - y16_53 - y17_27 - y36_40 - y17_36 - y28_36 - y36_49 - y47_49 - y17_45 - y28_45 - y9_41 - y5_52 - y17_54 - y28_63 - y6_26 - y21_33 - y6_44 - y21_42 - y39_50 - y39_59 - y10_32 - y23_51 - y23_60 - y2_37 - y32_38 - y13_34 - y3_11 - y35_43 - y13_61 - y16_57 - y5_29 - y17_31 - y17_40 - y9_36 - y17_49 - y5_56 - y42_51 - y27_62 - y42_60 - y2_5 - y2_14 - y31_50 - y39_63 - y23_46 - y2_23 - y4_51 - y1_27 - y13_29 - y13_38 - y24_38 - y32_51 - y24_47 - y1_63 - y17_26 - y9_22 - y9_31 - y5_51 - y27_48 - y27_57 - y31_36 - y39_49 - y20_54 - y13_15 - y1_31 - y24_33 - y32_46 - y16_29 - y16_38 - y16_47 - y38_44 - y9_17 - y38_53 - y28_30 - y49_53 - y5_37 - y8_39 - y19_39 - y19_48 - y50_63 - y0_44 - y30_57 - y12_18 - y12_27 - y12_45 - y23_45 - y4_41 - y12_54 - y23_63 - y45_60 - y56_60 - y1_35 - y16_42 - y46_52 - y9_12 - y57_61 - y49_57 - y18_60 - y8_34 - y30_34 - y8_43 - y19_43 - y30_43 - y12_13 - y20_26 - y11_57 - y23_31 - y20_44 - y31_44 - y23_49 - y13_14 - y34_46 - y45_46 - y22_62 - y1_39 - y14_58 - y5_9 - y46_47 - y38_43 - y9_16 - y15_50 - y26_50 - y38_52 - y8_29 - y19_29 - y27_42 - y11_25 - y8_38 - y30_38 - y27_51 - y0_34 - y30_56 - y20_21 - y12_17 - y41_53 - y23_35 - y1_7 - y25_63 - y13_18 - y22_48 - y34_50 - y1_25 - y37_46 - y16_23 - y45_59 - y56_59 - y14_53 - y14_62 - y15_36 - y46_51 - y38_47 - y18_41 - y26_63 - y0_11 - y0_29 - y8_42 - y30_42 - y19_51 - y11_47 - y41_48 - y41_57 - y52_57 - y4_17 - y33_53 - y10_60 - y53_58 - y34_54 - y14_48 - y56_63 - y15_22 - y7_18 - y7_27 - y26_40 - y7_45 - y7_54 - y18_54 - y48_55 - y11_15 - y8_28 - y19_28 - y0_33 - y11_42 - y12_16 - y10_46 - y44_48 - y52_61 - y25_44 - y25_53 - y22_29 - y1_6 - y22_38 - y14_43 - y56_58 - y3_52 - y14_52 - y59_60 - y7_31 - y18_31 - y17_63 - y7_40 - y18_40 - y0_1 - y0_10 - y19_23 - y0_19 - y29_55 - y30_32 - y6_62 - y25_30 - y4_7 - y25_39 - y4_16 - y10_50 - y44_52 - y10_59 - y33_61 - y3_20 - y22_42 - y37_40 - y37_49 - y3_56
 Subject to
C1: x0+x1-y0_1 <=1 
C2: x0+x2-y0_2 <=1 
C3: x0+x3-y0_3 <=1 
C4: x0+x4-y0_4 <=1 
C5: x0+x5-y0_5 <=1 
C6: x0+x7-y0_7 <=1 
C7: x0+x8 <=1 
C8: x0+x10-y0_10 <=1 
C9: x0+x11-y0_11 <=1 
C10: x0+x13 <=1 
C11: x0+x16-y0_16 <=1 
C12: x0+x17 <=1 
C13: x0+x18 <=1 
C14: x0+x19-y0_19 <=1 
C15: x0+x23 <=1 
C16: x0+x28 <=1 
C17: x0+x29-y0_29 <=1 
C18: x0+x30 <=1 
C19: x0+x31 <=1 
C20: x0+x33-y0_33 <=1 
C21: x0+x34-y0_34 <=1 
C22: x0+x35-y0_35 <=1 
C23: x0+x40 <=1 
C24: x0+x44-y0_44 <=1 
C25: x0+x45-y0_45 <=1 
C26: x0+x46 <=1 
C27: x0+x50 <=1 
C28: x0+x51-y0_51 <=1 
C29: x0+x54-y0_54 <=1 
C30: x0+x55-y0_55 <=1 
C31: x0+x57 <=1 
C32: x0+x60-y0_60 <=1 
C33: x0+x61 <=1 
C34: x0+x62 <=1 
C35: x1+x4-y1_4 <=1 
C36: x1+x5 <=1 
C37: x1+x6-y1_6 <=1 
C38: x1+x7-y1_7 <=1 
C39: x1+x9-y1_9 <=1 
C40: x1+x12 <=1 
C41: x1+x13 <=1 
C42: x1+x15-y1_15 <=1 
C43: x1+x17 <=1 
C44: x1+x18-y1_18 <=1 
C45: x1+x25-y1_25 <=1 
C46: x1+x26 <=1 
C47: x1+x27-y1_27 <=1 
C48: x1+x29-y1_29 <=1 
C49: x1+x31-y1_31 <=1 
C50: x1+x32-y1_32 <=1 
C51: x1+x35-y1_35 <=1 
C52: x1+x36 <=1 
C53: x1+x39-y1_39 <=1 
C54: x1+x41 <=1 
C55: x1+x42-y1_42 <=1 
C56: x1+x46-y1_46 <=1 
C57: x1+x47-y1_47 <=1 
C58: x1+x48-y1_48 <=1 
C59: x1+x49 <=1 
C60: x1+x51-y1_51 <=1 
C61: x1+x52 <=1 
C62: x1+x55 <=1 
C63: x1+x58 <=1 
C64: x1+x59 <=1 
C65: x1+x61-y1_61 <=1 
C66: x1+x63-y1_63 <=1 
C67: x2+x3 <=1 
C68: x2+x5-y2_5 <=1 
C69: x2+x11 <=1 
C70: x2+x12-y2_12 <=1 
C71: x2+x13-y2_13 <=1 
C72: x2+x14-y2_14 <=1 
C73: x2+x15-y2_15 <=1 
C74: x2+x16 <=1 
C75: x2+x17-y2_17 <=1 
C76: x2+x22 <=1 
C77: x2+x23-y2_23 <=1 
C78: x2+x24 <=1 
C79: x2+x25-y2_25 <=1 
C80: x2+x26 <=1 
C81: x2+x27-y2_27 <=1 
C82: x2+x29-y2_29 <=1 
C83: x2+x31 <=1 
C84: x2+x32 <=1 
C85: x2+x34-y2_34 <=1 
C86: x2+x36 <=1 
C87: x2+x37-y2_37 <=1 
C88: x2+x39 <=1 
C89: x2+x40-y2_40 <=1 
C90: x2+x42-y2_42 <=1 
C91: x2+x43-y2_43 <=1 
C92: x2+x44-y2_44 <=1 
C93: x2+x46 <=1 
C94: x2+x47 <=1 
C95: x2+x48-y2_48 <=1 
C96: x2+x49-y2_49 <=1 
C97: x2+x50 <=1 
C98: x2+x52-y2_52 <=1 
C99: x2+x53 <=1 
C100: x2+x58-y2_58 <=1 
C101: x2+x59 <=1 
C102: x2+x61-y2_61 <=1 
C103: x3+x6-y3_6 <=1 
C104: x3+x8 <=1 
C105: x3+x11-y3_11 <=1 
C106: x3+x12-y3_12 <=1 
C107: x3+x13 <=1 
C108: x3+x14 <=1 
C109: x3+x17-y3_17 <=1 
C110: x3+x19-y3_19 <=1 
C111: x3+x20-y3_20 <=1 
C112: x3+x21-y3_21 <=1 
C113: x3+x25 <=1 
C114: x3+x28-y3_28 <=1 
C115: x3+x30 <=1 
C116: x3+x31 <=1 
C117: x3+x32-y3_32 <=1 
C118: x3+x37 <=1 
C119: x3+x39 <=1 
C120: x3+x40-y3_40 <=1 
C121: x3+x41-y3_41 <=1 
C122: x3+x43 <=1 
C123: x3+x44-y3_44 <=1 
C124: x3+x45 <=1 
C125: x3+x46 <=1 
C126: x3+x49 <=1 
C127: x3+x50-y3_50 <=1 
C128: x3+x51 <=1 
C129: x3+x52-y3_52 <=1 
C130: x3+x56-y3_56 <=1 
C131: x3+x60 <=1 
C132: x3+x61 <=1 
C133: x4+x7-y4_7 <=1 
C134: x4+x8 <=1 
C135: x4+x10 <=1 
C136: x4+x12 <=1 
C137: x4+x15 <=1 
C138: x4+x16-y4_16 <=1 
C139: x4+x17-y4_17 <=1 
C140: x4+x20 <=1 
C141: x4+x22 <=1 
C142: x4+x24-y4_24 <=1 
C143: x4+x27 <=1 
C144: x4+x28 <=1 
C145: x4+x32 <=1 
C146: x4+x34 <=1 
C147: x4+x35 <=1 
C148: x4+x37 <=1 
C149: x4+x40 <=1 
C150: x4+x41-y4_41 <=1 
C151: x4+x43-y4_43 <=1 
C152: x4+x44-y4_44 <=1 
C153: x4+x47 <=1 
C154: x4+x48-y4_48 <=1 
C155: x4+x50 <=1 
C156: x4+x51-y4_51 <=1 
C157: x4+x52 <=1 
C158: x4+x55 <=1 
C159: x4+x56 <=1 
C160: x4+x59 <=1 
C161: x4+x60 <=1 
C162: x4+x62 <=1 
C163: x4+x63 <=1 
C164: x5+x6-y5_6 <=1 
C165: x5+x7 <=1 
C166: x5+x8 <=1 
C167: x5+x9-y5_9 <=1 
C168: x5+x11 <=1 
C169: x5+x12-y5_12 <=1 
C170: x5+x13 <=1 
C171: x5+x14 <=1 
C172: x5+x15 <=1 
C173: x5+x16-y5_16 <=1 
C174: x5+x18 <=1 
C175: x5+x21 <=1 
C176: x5+x22 <=1 
C177: x5+x26 <=1 
C178: x5+x27-y5_27 <=1 
C179: x5+x28 <=1 
C180: x5+x29-y5_29 <=1 
C181: x5+x30-y5_30 <=1 
C182: x5+x31 <=1 
C183: x5+x32 <=1 
C184: x5+x34 <=1 
C185: x5+x35 <=1 
C186: x5+x37-y5_37 <=1 
C187: x5+x38 <=1 
C188: x5+x39-y5_39 <=1 
C189: x5+x40-y5_40 <=1 
C190: x5+x42 <=1 
C191: x5+x43 <=1 
C192: x5+x44 <=1 
C193: x5+x45-y5_45 <=1 
C194: x5+x46-y5_46 <=1 
C195: x5+x47 <=1 
C196: x5+x50-y5_50 <=1 
C197: x5+x51-y5_51 <=1 
C198: x5+x52-y5_52 <=1 
C199: x5+x53-y5_53 <=1 
C200: x5+x54-y5_54 <=1 
C201: x5+x56-y5_56 <=1 
C202: x5+x57-y5_57 <=1 
C203: x5+x58 <=1 
C204: x5+x59 <=1 
C205: x5+x63 <=1 
C206: x6+x8 <=1 
C207: x6+x10-y6_10 <=1 
C208: x6+x12 <=1 
C209: x6+x15-y6_15 <=1 
C210: x6+x19 <=1 
C211: x6+x20 <=1 
C212: x6+x22 <=1 
C213: x6+x24-y6_24 <=1 
C214: x6+x26-y6_26 <=1 
C215: x6+x28-y6_28 <=1 
C216: x6+x29 <=1 
C217: x6+x30 <=1 
C218: x6+x31 <=1 
C219: x6+x32-y6_32 <=1 
C220: x6+x34-y6_34 <=1 
C221: x6+x35 <=1 
C222: x6+x36 <=1 
C223: x6+x37 <=1 
C224: x6+x38 <=1 
C225: x6+x40-y6_40 <=1 
C226: x6+x41 <=1 
C227: x6+x42-y6_42 <=1 
C228: x6+x43 <=1 
C229: x6+x44-y6_44 <=1 
C230: x6+x46 <=1 
C231: x6+x47-y6_47 <=1 
C232: x6+x49 <=1 
C233: x6+x50 <=1 
C234: x6+x51-y6_51 <=1 
C235: x6+x52 <=1 
C236: x6+x54 <=1 
C237: x6+x58 <=1 
C238: x6+x59-y6_59 <=1 
C239: x6+x60 <=1 
C240: x6+x62-y6_62 <=1 
C241: x6+x63-y6_63 <=1 
C242: x7+x11 <=1 
C243: x7+x12-y7_12 <=1 
C244: x7+x15-y7_15 <=1 
C245: x7+x17-y7_17 <=1 
C246: x7+x18-y7_18 <=1 
C247: x7+x19-y7_19 <=1 
C248: x7+x21 <=1 
C249: x7+x22 <=1 
C250: x7+x23-y7_23 <=1 
C251: x7+x24 <=1 
C252: x7+x26 <=1 
C253: x7+x27-y7_27 <=1 
C254: x7+x29 <=1 
C255: x7+x30-y7_30 <=1 
C256: x7+x31-y7_31 <=1 
C257: x7+x33 <=1 
C258: x7+x35-y7_35 <=1 
C259: x7+x37-y7_37 <=1 
C260: x7+x38 <=1 
C261: x7+x39 <=1 
C262: x7+x40-y7_40 <=1 
C263: x7+x45-y7_45 <=1 
C264: x7+x47 <=1 
C265: x7+x51 <=1 
C266: x7+x52-y7_52 <=1 
C267: x7+x53-y7_53 <=1 
C268: x7+x54-y7_54 <=1 
C269: x7+x56 <=1 
C270: x7+x57-y7_57 <=1 
C271: x7+x59 <=1 
C272: x7+x60 <=1 
C273: x7+x62 <=1 
C274: x7+x63-y7_63 <=1 
C275: x8+x13-y8_13 <=1 
C276: x8+x14 <=1 
C277: x8+x15 <=1 
C278: x8+x17 <=1 
C279: x8+x18-y8_18 <=1 
C280: x8+x19 <=1 
C281: x8+x22-y8_22 <=1 
C282: x8+x23 <=1 
C283: x8+x24 <=1 
C284: x8+x25 <=1 
C285: x8+x26 <=1 
C286: x8+x28-y8_28 <=1 
C287: x8+x29-y8_29 <=1 
C288: x8+x32-y8_32 <=1 
C289: x8+x34-y8_34 <=1 
C290: x8+x35 <=1 
C291: x8+x36-y8_36 <=1 
C292: x8+x38-y8_38 <=1 
C293: x8+x39-y8_39 <=1 
C294: x8+x41 <=1 
C295: x8+x42-y8_42 <=1 
C296: x8+x43-y8_43 <=1 
C297: x8+x45-y8_45 <=1 
C298: x8+x46 <=1 
C299: x8+x47 <=1 
C300: x8+x50 <=1 
C301: x8+x51-y8_51 <=1 
C302: x8+x52 <=1 
C303: x8+x54-y8_54 <=1 
C304: x8+x57 <=1 
C305: x8+x59 <=1 
C306: x8+x63-y8_63 <=1 
C307: x9+x12-y9_12 <=1 
C308: x9+x14 <=1 
C309: x9+x16-y9_16 <=1 
C310: x9+x17-y9_17 <=1 
C311: x9+x22-y9_22 <=1 
C312: x9+x23 <=1 
C313: x9+x24-y9_24 <=1 
C314: x9+x25-y9_25 <=1 
C315: x9+x27 <=1 
C316: x9+x30 <=1 
C317: x9+x31-y9_31 <=1 
C318: x9+x36-y9_36 <=1 
C319: x9+x41-y9_41 <=1 
C320: x9+x42-y9_42 <=1 
C321: x9+x43-y9_43 <=1 
C322: x9+x44 <=1 
C323: x9+x46-y9_46 <=1 
C324: x9+x47-y9_47 <=1 
C325: x9+x48 <=1 
C326: x9+x49-y9_49 <=1 
C327: x9+x50 <=1 
C328: x9+x51 <=1 
C329: x9+x52-y9_52 <=1 
C330: x9+x53 <=1 
C331: x9+x55-y9_55 <=1 
C332: x9+x56-y9_56 <=1 
C333: x9+x58 <=1 
C334: x9+x59 <=1 
C335: x9+x62-y9_62 <=1 
C336: x10+x11 <=1 
C337: x10+x12 <=1 
C338: x10+x13 <=1 
C339: x10+x14 <=1 
C340: x10+x15-y10_15 <=1 
C341: x10+x16-y10_16 <=1 
C342: x10+x17-y10_17 <=1 
C343: x10+x18 <=1 
C344: x10+x19 <=1 
C345: x10+x21-y10_21 <=1 
C346: x10+x23 <=1 
C347: x10+x25 <=1 
C348: x10+x27 <=1 
C349: x10+x29-y10_29 <=1 
C350: x10+x30 <=1 
C351: x10+x32-y10_32 <=1 
C352: x10+x34 <=1 
C353: x10+x36 <=1 
C354: x10+x37 <=1 
C355: x10+x38-y10_38 <=1 
C356: x10+x39-y10_39 <=1 
C357: x10+x44 <=1 
C358: x10+x46-y10_46 <=1 
C359: x10+x47-y10_47 <=1 
C360: x10+x48 <=1 
C361: x10+x50-y10_50 <=1 
C362: x10+x51-y10_51 <=1 
C363: x10+x53-y10_53 <=1 
C364: x10+x54-y10_54 <=1 
C365: x10+x56-y10_56 <=1 
C366: x10+x59-y10_59 <=1 
C367: x10+x60-y10_60 <=1 
C368: x11+x12-y11_12 <=1 
C369: x11+x13 <=1 
C370: x11+x15-y11_15 <=1 
C371: x11+x18-y11_18 <=1 
C372: x11+x20 <=1 
C373: x11+x21-y11_21 <=1 
C374: x11+x22 <=1 
C375: x11+x24 <=1 
C376: x11+x25-y11_25 <=1 
C377: x11+x26 <=1 
C378: x11+x27 <=1 
C379: x11+x29 <=1 
C380: x11+x31 <=1 
C381: x11+x32-y11_32 <=1 
C382: x11+x35-y11_35 <=1 
C383: x11+x37-y11_37 <=1 
C384: x11+x38 <=1 
C385: x11+x39 <=1 
C386: x11+x40-y11_40 <=1 
C387: x11+x41-y11_41 <=1 
C388: x11+x42-y11_42 <=1 
C389: x11+x44 <=1 
C390: x11+x45-y11_45 <=1 
C391: x11+x47-y11_47 <=1 
C392: x11+x48 <=1 
C393: x11+x49 <=1 
C394: x11+x50 <=1 
C395: x11+x51 <=1 
C396: x11+x52 <=1 
C397: x11+x54 <=1 
C398: x11+x57-y11_57 <=1 
C399: x11+x58 <=1 
C400: x11+x59 <=1 
C401: x11+x60 <=1 
C402: x11+x61 <=1 
C403: x11+x63 <=1 
C404: x12+x13-y12_13 <=1 
C405: x12+x15-y12_15 <=1 
C406: x12+x16-y12_16 <=1 
C407: x12+x17-y12_17 <=1 
C408: x12+x18-y12_18 <=1 
C409: x12+x21 <=1 
C410: x12+x22 <=1 
C411: x12+x23 <=1 
C412: x12+x25-y12_25 <=1 
C413: x12+x27-y12_27 <=1 
C414: x12+x28-y12_28 <=1 
C415: x12+x29 <=1 
C416: x12+x31 <=1 
C417: x12+x32 <=1 
C418: x12+x38 <=1 
C419: x12+x40 <=1 
C420: x12+x41 <=1 
C421: x12+x42 <=1 
C422: x12+x43 <=1 
C423: x12+x45-y12_45 <=1 
C424: x12+x49 <=1 
C425: x12+x54-y12_54 <=1 
C426: x12+x58 <=1 
C427: x12+x62 <=1 
C428: x12+x63-y12_63 <=1 
C429: x13+x14-y13_14 <=1 
C430: x13+x15-y13_15 <=1 
C431: x13+x16 <=1 
C432: x13+x17-y13_17 <=1 
C433: x13+x18-y13_18 <=1 
C434: x13+x19 <=1 
C435: x13+x21-y13_21 <=1 
C436: x13+x22-y13_22 <=1 
C437: x13+x25 <=1 
C438: x13+x26-y13_26 <=1 
C439: x13+x27 <=1 
C440: x13+x28 <=1 
C441: x13+x29-y13_29 <=1 
C442: x13+x30 <=1 
C443: x13+x32-y13_32 <=1 
C444: x13+x34-y13_34 <=1 
C445: x13+x35-y13_35 <=1 
C446: x13+x38-y13_38 <=1 
C447: x13+x39-y13_39 <=1 
C448: x13+x42 <=1 
C449: x13+x44 <=1 
C450: x13+x45 <=1 
C451: x13+x47 <=1 
C452: x13+x48 <=1 
C453: x13+x52 <=1 
C454: x13+x53-y13_53 <=1 
C455: x13+x54 <=1 
C456: x13+x55 <=1 
C457: x13+x57 <=1 
C458: x13+x58 <=1 
C459: x13+x59 <=1 
C460: x13+x60-y13_60 <=1 
C461: x13+x61-y13_61 <=1 
C462: x13+x62 <=1 
C463: x13+x63 <=1 
C464: x14+x15 <=1 
C465: x14+x17 <=1 
C466: x14+x18 <=1 
C467: x14+x19-y14_19 <=1 
C468: x14+x20 <=1 
C469: x14+x29 <=1 
C470: x14+x30-y14_30 <=1 
C471: x14+x31 <=1 
C472: x14+x32 <=1 
C473: x14+x33-y14_33 <=1 
C474: x14+x34 <=1 
C475: x14+x35 <=1 
C476: x14+x38 <=1 
C477: x14+x43-y14_43 <=1 
C478: x14+x44-y14_44 <=1 
C479: x14+x45 <=1 
C480: x14+x46-y14_46 <=1 
C481: x14+x48-y14_48 <=1 
C482: x14+x52-y14_52 <=1 
C483: x14+x53-y14_53 <=1 
C484: x14+x54 <=1 
C485: x14+x55 <=1 
C486: x14+x56 <=1 
C487: x14+x58-y14_58 <=1 
C488: x14+x61 <=1 
C489: x14+x62-y14_62 <=1 
C490: x14+x63 <=1 
C491: x15+x17 <=1 
C492: x15+x18-y15_18 <=1 
C493: x15+x19 <=1 
C494: x15+x20-y15_20 <=1 
C495: x15+x22-y15_22 <=1 
C496: x15+x23 <=1 
C497: x15+x24-y15_24 <=1 
C498: x15+x25-y15_25 <=1 
C499: x15+x27 <=1 
C500: x15+x30-y15_30 <=1 
C501: x15+x32-y15_32 <=1 
C502: x15+x33-y15_33 <=1 
C503: x15+x34-y15_34 <=1 
C504: x15+x36-y15_36 <=1 
C505: x15+x37-y15_37 <=1 
C506: x15+x40 <=1 
C507: x15+x45 <=1 
C508: x15+x46 <=1 
C509: x15+x47-y15_47 <=1 
C510: x15+x48 <=1 
C511: x15+x50-y15_50 <=1 
C512: x15+x52 <=1 
C513: x15+x53 <=1 
C514: x15+x54 <=1 
C515: x15+x55 <=1 
C516: x15+x56 <=1 
C517: x15+x57 <=1 
C518: x15+x58 <=1 
C519: x15+x59 <=1 
C520: x15+x62 <=1 
C521: x15+x63 <=1 
C522: x16+x17-y16_17 <=1 
C523: x16+x18-y16_18 <=1 
C524: x16+x20 <=1 
C525: x16+x22 <=1 
C526: x16+x23-y16_23 <=1 
C527: x16+x26 <=1 
C528: x16+x27 <=1 
C529: x16+x28 <=1 
C530: x16+x29-y16_29 <=1 
C531: x16+x30-y16_30 <=1 
C532: x16+x32 <=1 
C533: x16+x34 <=1 
C534: x16+x35-y16_35 <=1 
C535: x16+x38-y16_38 <=1 
C536: x16+x39 <=1 
C537: x16+x40 <=1 
C538: x16+x41 <=1 
C539: x16+x42-y16_42 <=1 
C540: x16+x44 <=1 
C541: x16+x46 <=1 
C542: x16+x47-y16_47 <=1 
C543: x16+x51-y16_51 <=1 
C544: x16+x53-y16_53 <=1 
C545: x16+x54 <=1 
C546: x16+x55-y16_55 <=1 
C547: x16+x57-y16_57 <=1 
C548: x16+x59-y16_59 <=1 
C549: x16+x60-y16_60 <=1 
C550: x16+x61 <=1 
C551: x16+x62 <=1 
C552: x17+x18 <=1 
C553: x17+x19-y17_19 <=1 
C554: x17+x20 <=1 
C555: x17+x22 <=1 
C556: x17+x23-y17_23 <=1 
C557: x17+x24-y17_24 <=1 
C558: x17+x26-y17_26 <=1 
C559: x17+x27-y17_27 <=1 
C560: x17+x30 <=1 
C561: x17+x31-y17_31 <=1 
C562: x17+x33-y17_33 <=1 
C563: x17+x36-y17_36 <=1 
C564: x17+x37 <=1 
C565: x17+x38-y17_38 <=1 
C566: x17+x40-y17_40 <=1 
C567: x17+x45-y17_45 <=1 
C568: x17+x46-y17_46 <=1 
C569: x17+x47 <=1 
C570: x17+x49-y17_49 <=1 
C571: x17+x53-y17_53 <=1 
C572: x17+x54-y17_54 <=1 
C573: x17+x57-y17_57 <=1 
C574: x17+x58-y17_58 <=1 
C575: x17+x59-y17_59 <=1 
C576: x17+x60-y17_60 <=1 
C577: x17+x61 <=1 
C578: x17+x62 <=1 
C579: x17+x63-y17_63 <=1 
C580: x18+x19-y18_19 <=1 
C581: x18+x21-y18_21 <=1 
C582: x18+x25-y18_25 <=1 
C583: x18+x27 <=1 
C584: x18+x30-y18_30 <=1 
C585: x18+x31-y18_31 <=1 
C586: x18+x35 <=1 
C587: x18+x37 <=1 
C588: x18+x39-y18_39 <=1 
C589: x18+x40-y18_40 <=1 
C590: x18+x41-y18_41 <=1 
C591: x18+x44-y18_44 <=1 
C592: x18+x45 <=1 
C593: x18+x46 <=1 
C594: x18+x47 <=1 
C595: x18+x48 <=1 
C596: x18+x51 <=1 
C597: x18+x52 <=1 
C598: x18+x53-y18_53 <=1 
C599: x18+x54-y18_54 <=1 
C600: x18+x56-y18_56 <=1 
C601: x18+x57-y18_57 <=1 
C602: x18+x58-y18_58 <=1 
C603: x18+x59 <=1 
C604: x18+x60-y18_60 <=1 
C605: x18+x61-y18_61 <=1 
C606: x18+x62 <=1 
C607: x18+x63 <=1 
C608: x19+x22 <=1 
C609: x19+x23-y19_23 <=1 
C610: x19+x24 <=1 
C611: x19+x25 <=1 
C612: x19+x26-y19_26 <=1 
C613: x19+x27-y19_27 <=1 
C614: x19+x28-y19_28 <=1 
C615: x19+x29-y19_29 <=1 
C616: x19+x30-y19_30 <=1 
C617: x19+x32-y19_32 <=1 
C618: x19+x33 <=1 
C619: x19+x35-y19_35 <=1 
C620: x19+x36 <=1 
C621: x19+x39-y19_39 <=1 
C622: x19+x40-y19_40 <=1 
C623: x19+x42 <=1 
C624: x19+x43-y19_43 <=1 
C625: x19+x44 <=1 
C626: x19+x46 <=1 
C627: x19+x48-y19_48 <=1 
C628: x19+x49-y19_49 <=1 
C629: x19+x50 <=1 
C630: x19+x51-y19_51 <=1 
C631: x19+x52 <=1 
C632: x19+x54 <=1 
C633: x19+x60-y19_60 <=1 
C634: x19+x61 <=1 
C635: x20+x21-y20_21 <=1 
C636: x20+x23 <=1 
C637: x20+x24-y20_24 <=1 
C638: x20+x25 <=1 
C639: x20+x26-y20_26 <=1 
C640: x20+x28 <=1 
C641: x20+x30 <=1 
C642: x20+x31 <=1 
C643: x20+x32-y20_32 <=1 
C644: x20+x34 <=1 
C645: x20+x35 <=1 
C646: x20+x38 <=1 
C647: x20+x39-y20_39 <=1 
C648: x20+x40 <=1 
C649: x20+x41 <=1 
C650: x20+x43-y20_43 <=1 
C651: x20+x44-y20_44 <=1 
C652: x20+x45 <=1 
C653: x20+x46 <=1 
C654: x20+x48-y20_48 <=1 
C655: x20+x49 <=1 
C656: x20+x52-y20_52 <=1 
C657: x20+x53-y20_53 <=1 
C658: x20+x54-y20_54 <=1 
C659: x20+x55 <=1 
C660: x20+x56-y20_56 <=1 
C661: x20+x61 <=1 
C662: x20+x62-y20_62 <=1 
C663: x21+x22 <=1 
C664: x21+x24 <=1 
C665: x21+x25-y21_25 <=1 
C666: x21+x27-y21_27 <=1 
C667: x21+x28 <=1 
C668: x21+x29 <=1 
C669: x21+x30-y21_30 <=1 
C670: x21+x33-y21_33 <=1 
C671: x21+x37 <=1 
C672: x21+x39 <=1 
C673: x21+x40-y21_40 <=1 
C674: x21+x42-y21_42 <=1 
C675: x21+x44-y21_44 <=1 
C676: x21+x45-y21_45 <=1 
C677: x21+x47 <=1 
C678: x21+x49-y21_49 <=1 
C679: x21+x54 <=1 
C680: x21+x55 <=1 
C681: x21+x56 <=1 
C682: x21+x57-y21_57 <=1 
C683: x21+x58 <=1 
C684: x21+x59 <=1 
C685: x21+x60 <=1 
C686: x21+x62-y21_62 <=1 
C687: x22+x23-y22_23 <=1 
C688: x22+x24 <=1 
C689: x22+x25 <=1 
C690: x22+x26-y22_26 <=1 
C691: x22+x27 <=1 
C692: x22+x28-y22_28 <=1 
C693: x22+x29-y22_29 <=1 
C694: x22+x30 <=1 
C695: x22+x31 <=1 
C696: x22+x32-y22_32 <=1 
C697: x22+x33 <=1 
C698: x22+x34 <=1 
C699: x22+x36-y22_36 <=1 
C700: x22+x37 <=1 
C701: x22+x38-y22_38 <=1 
C702: x22+x40-y22_40 <=1 
C703: x22+x41-y22_41 <=1 
C704: x22+x42-y22_42 <=1 
C705: x22+x43 <=1 
C706: x22+x44 <=1 
C707: x22+x46-y22_46 <=1 
C708: x22+x47 <=1 
C709: x22+x48-y22_48 <=1 
C710: x22+x49-y22_49 <=1 
C711: x22+x51 <=1 
C712: x22+x53-y22_53 <=1 
C713: x22+x56 <=1 
C714: x22+x58-y22_58 <=1 
C715: x22+x60 <=1 
C716: x22+x61 <=1 
C717: x22+x62-y22_62 <=1 
C718: x23+x24 <=1 
C719: x23+x26 <=1 
C720: x23+x27 <=1 
C721: x23+x28 <=1 
C722: x23+x29 <=1 
C723: x23+x30 <=1 
C724: x23+x31-y23_31 <=1 
C725: x23+x33-y23_33 <=1 
C726: x23+x35-y23_35 <=1 
C727: x23+x38 <=1 
C728: x23+x41 <=1 
C729: x23+x43 <=1 
C730: x23+x44 <=1 
C731: x23+x45-y23_45 <=1 
C732: x23+x46-y23_46 <=1 
C733: x23+x47 <=1 
C734: x23+x48-y23_48 <=1 
C735: x23+x49-y23_49 <=1 
C736: x23+x51-y23_51 <=1 
C737: x23+x52 <=1 
C738: x23+x56-y23_56 <=1 
C739: x23+x57 <=1 
C740: x23+x58 <=1 
C741: x23+x60-y23_60 <=1 
C742: x23+x62 <=1 
C743: x23+x63-y23_63 <=1 
C744: x24+x26-y24_26 <=1 
C745: x24+x27-y24_27 <=1 
C746: x24+x31 <=1 
C747: x24+x32-y24_32 <=1 
C748: x24+x33-y24_33 <=1 
C749: x24+x34 <=1 
C750: x24+x35 <=1 
C751: x24+x37 <=1 
C752: x24+x38-y24_38 <=1 
C753: x24+x45-y24_45 <=1 
C754: x24+x47-y24_47 <=1 
C755: x24+x52 <=1 
C756: x24+x55-y24_55 <=1 
C757: x24+x57 <=1 
C758: x24+x58 <=1 
C759: x24+x59 <=1 
C760: x24+x60-y24_60 <=1 
C761: x24+x62-y24_62 <=1 
C762: x24+x63-y24_63 <=1 
C763: x25+x26 <=1 
C764: x25+x27-y25_27 <=1 
C765: x25+x28-y25_28 <=1 
C766: x25+x29-y25_29 <=1 
C767: x25+x30-y25_30 <=1 
C768: x25+x32-y25_32 <=1 
C769: x25+x33-y25_33 <=1 
C770: x25+x34 <=1 
C771: x25+x35-y25_35 <=1 
C772: x25+x36-y25_36 <=1 
C773: x25+x37-y25_37 <=1 
C774: x25+x38 <=1 
C775: x25+x39-y25_39 <=1 
C776: x25+x40 <=1 
C777: x25+x43 <=1 
C778: x25+x44-y25_44 <=1 
C779: x25+x46 <=1 
C780: x25+x48 <=1 
C781: x25+x49 <=1 
C782: x25+x53-y25_53 <=1 
C783: x25+x55 <=1 
C784: x25+x56-y25_56 <=1 
C785: x25+x58 <=1 
C786: x25+x59 <=1 
C787: x25+x61-y25_61 <=1 
C788: x25+x62 <=1 
C789: x25+x63-y25_63 <=1 
C790: x26+x27 <=1 
C791: x26+x29 <=1 
C792: x26+x31 <=1 
C793: x26+x34-y26_34 <=1 
C794: x26+x36 <=1 
C795: x26+x37 <=1 
C796: x26+x38-y26_38 <=1 
C797: x26+x39-y26_39 <=1 
C798: x26+x40-y26_40 <=1 
C799: x26+x46-y26_46 <=1 
C800: x26+x47-y26_47 <=1 
C801: x26+x48-y26_48 <=1 
C802: x26+x49 <=1 
C803: x26+x50-y26_50 <=1 
C804: x26+x52 <=1 
C805: x26+x53-y26_53 <=1 
C806: x26+x54 <=1 
C807: x26+x56-y26_56 <=1 
C808: x26+x57 <=1 
C809: x26+x61 <=1 
C810: x26+x62 <=1 
C811: x26+x63-y26_63 <=1 
C812: x27+x28 <=1 
C813: x27+x31-y27_31 <=1 
C814: x27+x36-y27_36 <=1 
C815: x27+x37 <=1 
C816: x27+x38 <=1 
C817: x27+x39 <=1 
C818: x27+x40 <=1 
C819: x27+x41 <=1 
C820: x27+x42-y27_42 <=1 
C821: x27+x44 <=1 
C822: x27+x48-y27_48 <=1 
C823: x27+x50-y27_50 <=1 
C824: x27+x51-y27_51 <=1 
C825: x27+x52 <=1 
C826: x27+x54-y27_54 <=1 
C827: x27+x57-y27_57 <=1 
C828: x27+x58-y27_58 <=1 
C829: x27+x59-y27_59 <=1 
C830: x27+x62-y27_62 <=1 
C831: x28+x29 <=1 
C832: x28+x30-y28_30 <=1 
C833: x28+x31 <=1 
C834: x28+x32-y28_32 <=1 
C835: x28+x36-y28_36 <=1 
C836: x28+x37-y28_37 <=1 
C837: x28+x40 <=1 
C838: x28+x42-y28_42 <=1 
C839: x28+x45-y28_45 <=1 
C840: x28+x47 <=1 
C841: x28+x48 <=1 
C842: x28+x51 <=1 
C843: x28+x52 <=1 
C844: x28+x53 <=1 
C845: x28+x55-y28_55 <=1 
C846: x28+x56 <=1 
C847: x28+x58 <=1 
C848: x28+x59 <=1 
C849: x28+x61 <=1 
C850: x28+x62 <=1 
C851: x28+x63-y28_63 <=1 
C852: x29+x30-y29_30 <=1 
C853: x29+x31-y29_31 <=1 
C854: x29+x34-y29_34 <=1 
C855: x29+x35-y29_35 <=1 
C856: x29+x38-y29_38 <=1 
C857: x29+x39 <=1 
C858: x29+x40 <=1 
C859: x29+x42-y29_42 <=1 
C860: x29+x43-y29_43 <=1 
C861: x29+x45-y29_45 <=1 
C862: x29+x47-y29_47 <=1 
C863: x29+x48-y29_48 <=1 
C864: x29+x50 <=1 
C865: x29+x51 <=1 
C866: x29+x53-y29_53 <=1 
C867: x29+x55-y29_55 <=1 
C868: x29+x57-y29_57 <=1 
C869: x29+x58 <=1 
C870: x29+x60 <=1 
C871: x29+x62-y29_62 <=1 
C872: x29+x63 <=1 
C873: x30+x32-y30_32 <=1 
C874: x30+x34-y30_34 <=1 
C875: x30+x35 <=1 
C876: x30+x36-y30_36 <=1 
C877: x30+x38-y30_38 <=1 
C878: x30+x39 <=1 
C879: x30+x40 <=1 
C880: x30+x42-y30_42 <=1 
C881: x30+x43-y30_43 <=1 
C882: x30+x44 <=1 
C883: x30+x46-y30_46 <=1 
C884: x30+x49-y30_49 <=1 
C885: x30+x50-y30_50 <=1 
C886: x30+x52 <=1 
C887: x30+x53 <=1 
C888: x30+x54-y30_54 <=1 
C889: x30+x55 <=1 
C890: x30+x56-y30_56 <=1 
C891: x30+x57-y30_57 <=1 
C892: x30+x58-y30_58 <=1 
C893: x30+x59-y30_59 <=1 
C894: x30+x60-y30_60 <=1 
C895: x30+x61 <=1 
C896: x31+x32 <=1 
C897: x31+x33-y31_33 <=1 
C898: x31+x34 <=1 
C899: x31+x36-y31_36 <=1 
C900: x31+x37-y31_37 <=1 
C901: x31+x39 <=1 
C902: x31+x41 <=1 
C903: x31+x42-y31_42 <=1 
C904: x31+x43-y31_43 <=1 
C905: x31+x44-y31_44 <=1 
C906: x31+x45 <=1 
C907: x31+x48-y31_48 <=1 
C908: x31+x50-y31_50 <=1 
C909: x31+x51 <=1 
C910: x31+x52-y31_52 <=1 
C911: x31+x54 <=1 
C912: x31+x57-y31_57 <=1 
C913: x31+x60 <=1 
C914: x31+x61-y31_61 <=1 
C915: x31+x62 <=1 
C916: x31+x63 <=1 
C917: x32+x37 <=1 
C918: x32+x38-y32_38 <=1 
C919: x32+x39-y32_39 <=1 
C920: x32+x40-y32_40 <=1 
C921: x32+x41 <=1 
C922: x32+x43 <=1 
C923: x32+x44 <=1 
C924: x32+x45 <=1 
C925: x32+x46-y32_46 <=1 
C926: x32+x48-y32_48 <=1 
C927: x32+x49-y32_49 <=1 
C928: x32+x50-y32_50 <=1 
C929: x32+x51-y32_51 <=1 
C930: x32+x52 <=1 
C931: x32+x54-y32_54 <=1 
C932: x32+x55 <=1 
C933: x32+x56 <=1 
C934: x32+x57-y32_57 <=1 
C935: x32+x60 <=1 
C936: x32+x61 <=1 
C937: x32+x63 <=1 
C938: x33+x35-y33_35 <=1 
C939: x33+x37 <=1 
C940: x33+x38-y33_38 <=1 
C941: x33+x39 <=1 
C942: x33+x40-y33_40 <=1 
C943: x33+x41-y33_41 <=1 
C944: x33+x42-y33_42 <=1 
C945: x33+x43 <=1 
C946: x33+x46-y33_46 <=1 
C947: x33+x48 <=1 
C948: x33+x49-y33_49 <=1 
C949: x33+x50-y33_50 <=1 
C950: x33+x51-y33_51 <=1 
C951: x33+x52 <=1 
C952: x33+x53-y33_53 <=1 
C953: x33+x57 <=1 
C954: x33+x59-y33_59 <=1 
C955: x33+x61-y33_61 <=1 
C956: x34+x35 <=1 
C957: x34+x37 <=1 
C958: x34+x38-y34_38 <=1 
C959: x34+x40 <=1 
C960: x34+x44 <=1 
C961: x34+x46-y34_46 <=1 
C962: x34+x48 <=1 
C963: x34+x49 <=1 
C964: x34+x50-y34_50 <=1 
C965: x34+x51-y34_51 <=1 
C966: x34+x52-y34_52 <=1 
C967: x34+x54-y34_54 <=1 
C968: x34+x55 <=1 
C969: x34+x56-y34_56 <=1 
C970: x34+x57-y34_57 <=1 
C971: x34+x58 <=1 
C972: x34+x61-y34_61 <=1 
C973: x34+x62 <=1 
C974: x35+x36-y35_36 <=1 
C975: x35+x37 <=1 
C976: x35+x38 <=1 
C977: x35+x41-y35_41 <=1 
C978: x35+x43-y35_43 <=1 
C979: x35+x44-y35_44 <=1 
C980: x35+x48-y35_48 <=1 
C981: x35+x49-y35_49 <=1 
C982: x35+x50 <=1 
C983: x35+x51 <=1 
C984: x35+x52 <=1 
C985: x35+x54-y35_54 <=1 
C986: x35+x55-y35_55 <=1 
C987: x35+x58 <=1 
C988: x35+x59 <=1 
C989: x35+x61 <=1 
C990: x35+x62 <=1 
C991: x36+x40-y36_40 <=1 
C992: x36+x43 <=1 
C993: x36+x46 <=1 
C994: x36+x47 <=1 
C995: x36+x49-y36_49 <=1 
C996: x36+x50-y36_50 <=1 
C997: x36+x51-y36_51 <=1 
C998: x36+x52 <=1 
C999: x36+x55-y36_55 <=1 
C1000: x36+x56 <=1 
C1001: x36+x59-y36_59 <=1 
C1002: x36+x61 <=1 
C1003: x37+x38 <=1 
C1004: x37+x40-y37_40 <=1 
C1005: x37+x41 <=1 
C1006: x37+x42-y37_42 <=1 
C1007: x37+x43-y37_43 <=1 
C1008: x37+x44-y37_44 <=1 
C1009: x37+x46-y37_46 <=1 
C1010: x37+x48 <=1 
C1011: x37+x49-y37_49 <=1 
C1012: x37+x50 <=1 
C1013: x37+x52 <=1 
C1014: x37+x53-y37_53 <=1 
C1015: x37+x55 <=1 
C1016: x37+x59 <=1 
C1017: x37+x62-y37_62 <=1 
C1018: x37+x63-y37_63 <=1 
C1019: x38+x39 <=1 
C1020: x38+x41 <=1 
C1021: x38+x43-y38_43 <=1 
C1022: x38+x44-y38_44 <=1 
C1023: x38+x45-y38_45 <=1 
C1024: x38+x47-y38_47 <=1 
C1025: x38+x48 <=1 
C1026: x38+x49-y38_49 <=1 
C1027: x38+x50 <=1 
C1028: x38+x51-y38_51 <=1 
C1029: x38+x52-y38_52 <=1 
C1030: x38+x53-y38_53 <=1 
C1031: x38+x54-y38_54 <=1 
C1032: x38+x55 <=1 
C1033: x38+x58 <=1 
C1034: x38+x59-y38_59 <=1 
C1035: x38+x60-y38_60 <=1 
C1036: x38+x63 <=1 
C1037: x39+x41-y39_41 <=1 
C1038: x39+x42-y39_42 <=1 
C1039: x39+x44 <=1 
C1040: x39+x45 <=1 
C1041: x39+x46-y39_46 <=1 
C1042: x39+x47-y39_47 <=1 
C1043: x39+x48-y39_48 <=1 
C1044: x39+x49-y39_49 <=1 
C1045: x39+x50-y39_50 <=1 
C1046: x39+x51 <=1 
C1047: x39+x52-y39_52 <=1 
C1048: x39+x55 <=1 
C1049: x39+x56 <=1 
C1050: x39+x57-y39_57 <=1 
C1051: x39+x58 <=1 
C1052: x39+x59-y39_59 <=1 
C1053: x39+x61 <=1 
C1054: x39+x62-y39_62 <=1 
C1055: x39+x63-y39_63 <=1 
C1056: x40+x41 <=1 
C1057: x40+x42 <=1 
C1058: x40+x43 <=1 
C1059: x40+x44-y40_44 <=1 
C1060: x40+x49-y40_49 <=1 
C1061: x40+x54 <=1 
C1062: x40+x61-y40_61 <=1 
C1063: x41+x46-y41_46 <=1 
C1064: x41+x47 <=1 
C1065: x41+x48-y41_48 <=1 
C1066: x41+x49-y41_49 <=1 
C1067: x41+x51 <=1 
C1068: x41+x52 <=1 
C1069: x41+x53-y41_53 <=1 
C1070: x41+x54 <=1 
C1071: x41+x55-y41_55 <=1 
C1072: x41+x56 <=1 
C1073: x41+x57-y41_57 <=1 
C1074: x41+x58-y41_58 <=1 
C1075: x41+x60 <=1 
C1076: x41+x62 <=1 
C1077: x42+x43-y42_43 <=1 
C1078: x42+x44-y42_44 <=1 
C1079: x42+x45 <=1 
C1080: x42+x46 <=1 
C1081: x42+x47-y42_47 <=1 
C1082: x42+x51-y42_51 <=1 
C1083: x42+x54 <=1 
C1084: x42+x56 <=1 
C1085: x42+x60-y42_60 <=1 
C1086: x42+x61 <=1 
C1087: x42+x62 <=1 
C1088: x42+x63 <=1 
C1089: x43+x46 <=1 
C1090: x43+x48 <=1 
C1091: x43+x50-y43_50 <=1 
C1092: x43+x52-y43_52 <=1 
C1093: x43+x53-y43_53 <=1 
C1094: x43+x54 <=1 
C1095: x43+x56 <=1 
C1096: x43+x57-y43_57 <=1 
C1097: x43+x58-y43_58 <=1 
C1098: x43+x59-y43_59 <=1 
C1099: x43+x61 <=1 
C1100: x43+x62 <=1 
C1101: x44+x45 <=1 
C1102: x44+x46 <=1 
C1103: x44+x47-y44_47 <=1 
C1104: x44+x48-y44_48 <=1 
C1105: x44+x50 <=1 
C1106: x44+x52-y44_52 <=1 
C1107: x44+x56 <=1 
C1108: x44+x58 <=1 
C1109: x44+x59-y44_59 <=1 
C1110: x44+x60-y44_60 <=1 
C1111: x44+x62 <=1 
C1112: x44+x63-y44_63 <=1 
C1113: x45+x46-y45_46 <=1 
C1114: x45+x48 <=1 
C1115: x45+x50 <=1 
C1116: x45+x51-y45_51 <=1 
C1117: x45+x52 <=1 
C1118: x45+x53 <=1 
C1119: x45+x56-y45_56 <=1 
C1120: x45+x59-y45_59 <=1 
C1121: x45+x60-y45_60 <=1 
C1122: x45+x62-y45_62 <=1 
C1123: x46+x47-y46_47 <=1 
C1124: x46+x49-y46_49 <=1 
C1125: x46+x50 <=1 
C1126: x46+x51-y46_51 <=1 
C1127: x46+x52-y46_52 <=1 
C1128: x46+x54 <=1 
C1129: x46+x55 <=1 
C1130: x46+x56 <=1 
C1131: x46+x57 <=1 
C1132: x46+x59 <=1 
C1133: x46+x60 <=1 
C1134: x46+x61 <=1 
C1135: x46+x62 <=1 
C1136: x46+x63 <=1 
C1137: x47+x48-y47_48 <=1 
C1138: x47+x49-y47_49 <=1 
C1139: x47+x50-y47_50 <=1 
C1140: x47+x54 <=1 
C1141: x47+x60 <=1 
C1142: x47+x61 <=1 
C1143: x47+x62-y47_62 <=1 
C1144: x47+x63 <=1 
C1145: x48+x50 <=1 
C1146: x48+x51-y48_51 <=1 
C1147: x48+x52 <=1 
C1148: x48+x54 <=1 
C1149: x48+x55-y48_55 <=1 
C1150: x48+x58-y48_58 <=1 
C1151: x48+x61-y48_61 <=1 
C1152: x48+x62 <=1 
C1153: x48+x63-y48_63 <=1 
C1154: x49+x51-y49_51 <=1 
C1155: x49+x53-y49_53 <=1 
C1156: x49+x55-y49_55 <=1 
C1157: x49+x57-y49_57 <=1 
C1158: x49+x59-y49_59 <=1 
C1159: x49+x61 <=1 
C1160: x49+x62 <=1 
C1161: x49+x63 <=1 
C1162: x50+x52 <=1 
C1163: x50+x54 <=1 
C1164: x50+x56-y50_56 <=1 
C1165: x50+x58 <=1 
C1166: x50+x59 <=1 
C1167: x50+x62 <=1 
C1168: x50+x63-y50_63 <=1 
C1169: x51+x53-y51_53 <=1 
C1170: x51+x56-y51_56 <=1 
C1171: x51+x57 <=1 
C1172: x51+x58 <=1 
C1173: x51+x62-y51_62 <=1 
C1174: x52+x54-y52_54 <=1 
C1175: x52+x55-y52_55 <=1 
C1176: x52+x56 <=1 
C1177: x52+x57-y52_57 <=1 
C1178: x52+x59 <=1 
C1179: x52+x60-y52_60 <=1 
C1180: x52+x61-y52_61 <=1 
C1181: x52+x63 <=1 
C1182: x53+x54 <=1 
C1183: x53+x57-y53_57 <=1 
C1184: x53+x58-y53_58 <=1 
C1185: x53+x60 <=1 
C1186: x53+x61-y53_61 <=1 
C1187: x53+x62 <=1 
C1188: x53+x63 <=1 
C1189: x54+x55 <=1 
C1190: x54+x56 <=1 
C1191: x54+x60 <=1 
C1192: x54+x63 <=1 
C1193: x55+x56-y55_56 <=1 
C1194: x55+x57 <=1 
C1195: x55+x58-y55_58 <=1 
C1196: x55+x59 <=1 
C1197: x55+x60 <=1 
C1198: x55+x61 <=1 
C1199: x55+x62 <=1 
C1200: x55+x63-y55_63 <=1 
C1201: x56+x58-y56_58 <=1 
C1202: x56+x59-y56_59 <=1 
C1203: x56+x60-y56_60 <=1 
C1204: x56+x63-y56_63 <=1 
C1205: x57+x58-y57_58 <=1 
C1206: x57+x59 <=1 
C1207: x57+x61-y57_61 <=1 
C1208: x57+x62 <=1 
C1209: x57+x63 <=1 
C1210: x58+x60 <=1 
C1211: x58+x62-y58_62 <=1 
C1212: x59+x60-y59_60 <=1 
C1213: x59+x62 <=1 
C1214: x59+x63 <=1 
C1215: x60+x61 <=1 
C1216: x60+x62 <=1 
C1217: x60+x63-y60_63 <=1 
C1218: x61+x62-y61_62 <=1 
C1219: x62+x63 <=1 

binary
x0
x1
x2
x3
x4
x5
x6
x7
x8
x9
x10
x11
x12
x13
x14
x15
x16
x17
x18
x19
x20
x21
x22
x23
x24
x25
x26
x27
x28
x29
x30
x31
x32
x33
x34
x35
x36
x37
x38
x39
x40
x41
x42
x43
x44
x45
x46
x47
x48
x49
x50
x51
x52
x53
x54
x55
x56
x57
x58
x59
x60
x61
x62
x63
