problem_generation/data/GISP/train/er_n=64_m=1219_p=0.60_SET2_setparam=100.00_alpha=0.50_109.sol
objective value:                                 1266
x0                                                  1 	(obj:100)
x1                                                  1 	(obj:100)
x3                                                  1 	(obj:100)
x9                                                  1 	(obj:100)
x10                                                 1 	(obj:100)
x15                                                 1 	(obj:100)
x20                                                 1 	(obj:100)
x24                                                 1 	(obj:100)
x29                                                 1 	(obj:100)
x32                                                 1 	(obj:100)
x33                                                 1 	(obj:100)
x42                                                 1 	(obj:100)
x47                                                 1 	(obj:100)
y33_42                                              1 	(obj:-1)
y24_32                                              1 	(obj:-1)
y9_47                                               1 	(obj:-1)
y1_29                                               1 	(obj:-1)
y1_47                                               1 	(obj:-1)
y9_24                                               1 	(obj:-1)
y1_15                                               1 	(obj:-1)
y1_42                                               1 	(obj:-1)
y20_24                                              1 	(obj:-1)
y42_47                                              1 	(obj:-1)
y1_32                                               1 	(obj:-1)
y20_32                                              1 	(obj:-1)
y1_9                                                1 	(obj:-1)
y15_20                                              1 	(obj:-1)
y15_47                                              1 	(obj:-1)
y3_32                                               1 	(obj:-1)
y15_24                                              1 	(obj:-1)
y15_33                                              1 	(obj:-1)
y0_3                                                1 	(obj:-1)
y15_32                                              1 	(obj:-1)
y10_29                                              1 	(obj:-1)
y10_47                                              1 	(obj:-1)
y9_42                                               1 	(obj:-1)
y29_47                                              1 	(obj:-1)
y10_15                                              1 	(obj:-1)
y29_42                                              1 	(obj:-1)
y10_32                                              1 	(obj:-1)
y24_47                                              1 	(obj:-1)
y24_33                                              1 	(obj:-1)
y0_29                                               1 	(obj:-1)
y0_33                                               1 	(obj:-1)
y0_1                                                1 	(obj:-1)
y0_10                                               1 	(obj:-1)
y3_20                                               1 	(obj:-1)
